clingo version 5.5.2
Reading from ...nt/beegfs/home/jubruns/encoding/mif.lp ...
Solving...
Answer: 1
move(1,(15,8),(15,9),1)
SATISFIABLE

Models       : 1
Calls        : 1
Time         : 0.072s (Solving: 0.00s 1st Model: 0.00s Unsat: 0.00s)
CPU Time     : 0.031s

Choices      : 0       
Conflicts    : 0        (Analyzed: 0)
Restarts     : 0       
Model-Level  : 0.0     
Problems     : 1        (Average Length: 0.00 Splits: 0)
Lemmas       : 0        (Deleted: 0)
  Binary     : 0        (Ratio:   0.00%)
  Ternary    : 0        (Ratio:   0.00%)
  Conflict   : 0        (Average Length:    0.0 Ratio:   0.00%) 
  Loop       : 0        (Average Length:    0.0 Ratio:   0.00%) 
  Other      : 0        (Average Length:    0.0 Ratio:   0.00%) 
Backjumps    : 0        (Average:  0.00 Max:   0 Sum:      0)
  Executed   : 0        (Average:  0.00 Max:   0 Sum:      0 Ratio:   0.00%)
  Bounded    : 0        (Average:  0.00 Max:   0 Sum:      0 Ratio: 100.00%)

Rules        : 6156     (Original: 4068)
  Choice     : 1       
  Heuristic  : 0        (Original: 12)
Atoms        : 4572     (Original: 3529 Auxiliary: 1043)
Bodies       : 1589     (Original: 1577)
  Count      : 0        (Original: 3)
Equivalences : 4206     (Atom=Atom: 1052 Body=Body: 10 Other: 3144)
Tight        : Yes
Variables    : 1046     (Eliminated:    0 Frozen:    0)
Constraints  : 0        (Binary:   0.0% Ternary:   0.0% Other:   0.0%)

